Reading model...
...model read.
creating competitive generators file...
...competitive generators recorded.
Loading data...
.. real-time data read.
Compiling instance...
...instance created.
Creating Offer Mitigation (model will solve as dispatch if TRUE)...
...storage offer mitigation file created
Converting model to MPEC...
...converted
NOTE: initial MIP solve with only storage competitive to get feasible solution
Solving...

Welcome to IBM(R) ILOG(R) CPLEX(R) Interactive Optimizer 12.9.0.0
  with Simplex, Mixed Integer & Barrier Optimizers
5725-A06 5725-A29 5724-Y48 5724-Y49 5724-Y54 5724-Y55 5655-Y21
Copyright IBM Corp. 1988, 2019.  All Rights Reserved.

Type 'help' for a list of available commands.
Type 'help' followed by a command name for more
information on commands.

CPLEX> Logfile 'cplex.log' closed.
Logfile 'C:\Users\llavin\Desktop\test826\logs\tmpiaa9yxwu.cplex.log' open.
CPLEX> New value for parallel optimization mode: -1
CPLEX> New value for mixed integer optimality gap tolerance: 0.01
CPLEX> New value for feasibility tolerance: 1e-09
CPLEX> New value for deterministic time limit in ticks: 100000
CPLEX> Problem 'C:\Users\llavin\Desktop\test826\logs\tmpjdt8kay9.pyomo.lp' read.
Read time = 0.53 sec. (28.54 ticks)
CPLEX> Problem name         : C:\Users\llavin\Desktop\test826\logs\tmpjdt8kay9.pyomo.lp
Objective sense      : Maximize
Variables            :  107781  [Nneg: 1,  Box: 44056,  Free: 8928,
                                 Binary: 54796]
Objective nonzeros   :   18371
Linear constraints   :  246901  [Less: 82866,  Greater: 118424,  Equal: 45611]
  Nonzeros           :  619071
  RHS nonzeros       :  135876

Variables            : Min LB: -5000.000        Max UB: 1000000.       
Objective nonzeros   : Min   : 0.008333333      Max   : 208.3333       
Linear constraints   :
  Nonzeros           : Min   : 0.008333333      Max   : 1000000.       
  RHS nonzeros       : Min   : 0.008333333      Max   : 1000000.       
CPLEX> CPXPARAM_Parallel                                -1
CPXPARAM_Simplex_Tolerances_Feasibility          1.0000000000000001e-09
CPXPARAM_DetTimeLimit                            100000
CPXPARAM_MIP_Tolerances_MIPGap                   0.01
Tried aggregator 3 times.
MIP Presolve eliminated 176127 rows and 36925 columns.
MIP Presolve added 7065 rows and 0 columns.
MIP Presolve modified 52678 coefficients.
Aggregator did 26038 substitutions.
Reduced MIP has 51801 rows, 43944 columns, and 171509 nonzeros.
Reduced MIP has 17396 binaries, 0 generals, 0 SOSs, and 0 indicators.
Presolve time = 0.67 sec. (397.05 ticks)
Probing fixed 746 vars, tightened 9628 bounds.
Probing time = 0.42 sec. (16.25 ticks)
Tried aggregator 2 times.
MIP Presolve eliminated 1705 rows and 1516 columns.
MIP Presolve modified 6393 coefficients.
Aggregator did 56 substitutions.
Reduced MIP has 50040 rows, 42372 columns, and 166340 nonzeros.
Reduced MIP has 16645 binaries, 0 generals, 0 SOSs, and 0 indicators.
Presolve time = 0.30 sec. (268.21 ticks)
Probing fixed 6 vars, tightened 410 bounds.
Probing time = 0.58 sec. (20.54 ticks)
Clique table members: 92602.
MIP emphasis: balance optimality and feasibility.
MIP search method: dynamic search.
Parallel mode: opportunistic, using up to 32 threads.
Root relaxation solution time = 1.20 sec. (2080.45 ticks)

        Nodes                                         Cuts/
   Node  Left     Objective  IInf  Best Integer    Best Bound    ItCnt     Gap

      0     0        0.0000     2                      0.0000    10057         
*     0+    0                            0.0000        0.0000             0.00%
      0     0        cutoff              0.0000        0.0000    10057    0.00%
Elapsed time = 4.00 sec. (3321.44 ticks, tree = 0.01 MB, solutions = 1)

Root node processing (before b&c):
  Real time             =    4.05 sec. (3325.44 ticks)
Parallel b&c, 32 threads:
  Real time             =    0.00 sec. (0.00 ticks)
  Sync time (average)   =    0.00 sec.
  Wait time (average)   =    0.00 sec.
                          ------------
Total (root+branch&cut) =    4.05 sec. (3325.44 ticks)

Solution pool: 1 solution saved.

MIP - Integer optimal solution:  Objective =  0.0000000000e+00
Solution time =    4.06 sec.  Iterations = 10057  Nodes = 0
Deterministic time = 3325.75 ticks  (818.75 ticks/sec)

CPLEX> Incumbent solution written to file 'C:\Users\llavin\Desktop\test826\logs\tmpy8bdobbz.cplex.sol'.
CPLEX> NOTE: no warmstart specified for MIP iteration, default behavior is true
NOTE: resolving with all competitive generators using storage-only solution to warmstart
Solving...

Welcome to IBM(R) ILOG(R) CPLEX(R) Interactive Optimizer 12.9.0.0
  with Simplex, Mixed Integer & Barrier Optimizers
5725-A06 5725-A29 5724-Y48 5724-Y49 5724-Y54 5724-Y55 5655-Y21
Copyright IBM Corp. 1988, 2019.  All Rights Reserved.

Type 'help' for a list of available commands.
Type 'help' followed by a command name for more
information on commands.

CPLEX> Logfile 'cplex.log' closed.
Logfile 'C:\Users\llavin\Desktop\test826\logs\tmp20390s_l.cplex.log' open.
CPLEX> New value for parallel optimization mode: -1
CPLEX> New value for mixed integer optimality gap tolerance: 0.01
CPLEX> New value for feasibility tolerance: 1e-09
CPLEX> New value for deterministic time limit in ticks: 100000
CPLEX> Problem 'C:\Users\llavin\Desktop\test826\logs\tmpvwg4c50q.pyomo.lp' read.
Read time = 0.55 sec. (28.58 ticks)
CPLEX> MIP start file 'C:\Users\llavin\Desktop\test826\logs\tmp6xkootd4.cplex.mst' read.
CPLEX> Problem name         : C:\Users\llavin\Desktop\test826\logs\tmpvwg4c50q.pyomo.lp
Objective sense      : Maximize
Variables            :  109221  [Nneg: 1,  Box: 45496,  Free: 8928,
                                 Binary: 54796]
Objective nonzeros   :   19763
Linear constraints   :  246901  [Less: 82866,  Greater: 118424,  Equal: 45611]
  Nonzeros           :  619071
  RHS nonzeros       :  135876

Variables            : Min LB: -5000.000        Max UB: 1000000.       
Objective nonzeros   : Min   : 0.008333333      Max   : 208.3333       
Linear constraints   :
  Nonzeros           : Min   : 0.008333333      Max   : 1000000.       
  RHS nonzeros       : Min   : 0.008333333      Max   : 1000000.       
CPLEX> CPXPARAM_Parallel                                -1
CPXPARAM_Simplex_Tolerances_Feasibility          1.0000000000000001e-09
CPXPARAM_DetTimeLimit                            100000
CPXPARAM_MIP_Tolerances_MIPGap                   0.01
1 of 1 MIP starts provided solutions.
MIP start 'm1' defined initial solution with objective 0.0000.
Tried aggregator 3 times.
MIP Presolve eliminated 176127 rows and 38365 columns.
MIP Presolve added 7065 rows and 0 columns.
MIP Presolve modified 52678 coefficients.
Aggregator did 26038 substitutions.
Reduced MIP has 51801 rows, 43944 columns, and 171509 nonzeros.
Reduced MIP has 17396 binaries, 0 generals, 0 SOSs, and 0 indicators.
Presolve time = 0.67 sec. (397.79 ticks)
Probing fixed 746 vars, tightened 9628 bounds.
Probing time = 0.44 sec. (16.25 ticks)
Tried aggregator 2 times.
MIP Presolve eliminated 1705 rows and 1516 columns.
MIP Presolve modified 6393 coefficients.
Aggregator did 56 substitutions.
Reduced MIP has 50040 rows, 42372 columns, and 166340 nonzeros.
Reduced MIP has 16645 binaries, 0 generals, 0 SOSs, and 0 indicators.
Presolve time = 0.30 sec. (268.38 ticks)
Probing fixed 6 vars, tightened 416 bounds.
Probing time = 0.61 sec. (20.25 ticks)
Clique table members: 92888.
MIP emphasis: balance optimality and feasibility.
MIP search method: dynamic search.
Parallel mode: opportunistic, using up to 32 threads.
Root relaxation solution time = 1.38 sec. (2243.30 ticks)

        Nodes                                         Cuts/
   Node  Left     Objective  IInf  Best Integer    Best Bound    ItCnt     Gap

*     0+    0                            0.0000   1.19991e+07              --- 
      0     0    13156.2043   327        0.0000    13156.2043    11660     --- 
      0     0    11961.9527   299        0.0000     Cuts: 311    12116     --- 
      0     0    10176.6260   271        0.0000     Cuts: 306    12500     --- 
      0     0    10176.6260   252        0.0000     Cuts: 238    12591     --- 
      0     0    10176.6260   252        0.0000      Cuts: 92    12616     --- 
      0    30    infeasible              0.0000   Impl Bds: 3    13523     --- 
Elapsed time = 11.45 sec. (7469.57 ticks, tree = 0.02 MB, solutions = 1)
    110    56     7159.5026    72        0.0000     8128.1209    14235     --- 
    463    68     5396.0604    41        0.0000     8128.1209    14528     --- 
    784   409        cutoff              0.0000     8128.1209    19262     --- 
   1036   621     2875.1245    24        0.0000     8128.1209    23412     --- 
   1318   733       81.7461    43        0.0000     8128.1209    26676     --- 
   1529   868     3899.9359    31        0.0000     7974.5846    31365     --- 
   1752   881        cutoff              0.0000     7974.5846    32193     --- 
   2024   930     3354.9118    57        0.0000     7974.5846    34242     --- 
   2325   929     1405.7679     7        0.0000     6922.1882    33878     --- 
   3516  1584        cutoff              0.0000     6410.4216    61285     --- 
Elapsed time = 33.09 sec. (10573.85 ticks, tree = 15.33 MB, solutions = 1)
   4688  1745      589.1655    17        0.0000     5906.0671    71852     --- 
   6009  2140     1550.6017    13        0.0000     4537.9573    93867     --- 
   7319  2512      228.6213     7        0.0000     3580.3168   122495     --- 
   7877  2503        7.7909    26        0.0000     3409.6562   123831     --- 
*  7908     0      integral     0        0.0000        0.0000   142236    0.00%

GUB cover cuts applied:  3
Cover cuts applied:  3
Implied bound cuts applied:  8
Flow cuts applied:  240
Mixed integer rounding cuts applied:  59
Lift and project cuts applied:  19
Gomory fractional cuts applied:  19

Root node processing (before b&c):
  Real time             =    8.92 sec. (7430.88 ticks)
Parallel b&c, 32 threads:
  Real time             =   50.28 sec. (11667.69 ticks)
  Sync time (average)   =    1.43 sec.
  Wait time (average)   =    0.00 sec.
                          ------------
Total (root+branch&cut) =   59.20 sec. (19098.57 ticks)

Solution pool: 1 solution saved.

MIP - Integer optimal solution:  Objective =  0.0000000000e+00
Solution time =   59.22 sec.  Iterations = 142236  Nodes = 7908
Deterministic time = 19098.89 ticks  (322.52 ticks/sec)

CPLEX> Incumbent solution written to file 'C:\Users\llavin\Desktop\test826\logs\tmp4remggs1.cplex.sol'.
CPLEX> Exporting results... 
